c turning on binary mode checking
c parsing input formula with 202048 variables and 780985 clauses
c finished parsing, read 2418020 bytes from proof file
c detected empty clause; start verification via backward checking
c 7774 of 780985 clauses in core                            
c 2392 of 99957 lemmas in core using 57789 resolution steps
c 0 RAT lemmas in core; 277 redundant literals in core lemmas
s VERIFIED
c verification time: 1.191 seconds
